94 94 
85 94 
63 16 
0 42 
32 42 
17 46 
84 96 
39 92 
63 3 
42 37 
97 78 
42 40 
67 64 
27 65 
23 43 
69 69 
89 54 
16 5 
22 16 
99 54 
58 16 
1 94 
12 92 
87 27 
95 29 
65 44 
59 7 
85 79 
23 64 
44 98 
59 65 
68 0 
71 84 
5 93 
0 5 
48 10 
73 1 
4 38 
93 43 
65 40 
24 82 
85 84 
41 22 
15 16 
38 59 
15 97 
76 35 
49 47 
19 55 
40 71 
